data/MCDM/NO_CORR/GEN_FROM_60/19_ITEMS_1000_GEN/K5019W10.KNP.mps
NAME          BLANK   
ROWS
 N  OBJROW
 L  R0000000
COLUMNS
    C0000000  OBJROW     -198.         R0000000  714.        
    C0000001  OBJROW     -316.         R0000000  57.         
    C0000002  OBJROW     -404.         R0000000  924.        
    C0000003  OBJROW     -914.         R0000000  250.        
    C0000004  OBJROW     -722.         R0000000  707.        
    C0000005  OBJROW     -454.         R0000000  746.        
    C0000006  OBJROW     -876.         R0000000  923.        
    C0000007  OBJROW     -86.          R0000000  768.        
    C0000008  OBJROW     -158.         R0000000  942.        
    C0000009  OBJROW     -1000.        R0000000  103.        
    C0000010  OBJROW     -884.         R0000000  265.        
    C0000011  OBJROW     -189.         R0000000  705.        
    C0000012  OBJROW     -870.         R0000000  640.        
    C0000013  OBJROW     -734.         R0000000  104.        
    C0000014  OBJROW     -619.         R0000000  473.        
    C0000015  OBJROW     -969.         R0000000  866.        
    C0000016  OBJROW     -194.         R0000000  761.        
    C0000017  OBJROW     -67.          R0000000  312.        
    C0000018  OBJROW     -798.         R0000000  569.        
RHS
    RHS       R0000000  15551.      
BOUNDS
 BV BOUND     C0000000  1.          
 BV BOUND     C0000001  1.          
 BV BOUND     C0000002  1.          
 BV BOUND     C0000003  1.          
 BV BOUND     C0000004  1.          
 BV BOUND     C0000005  1.          
 BV BOUND     C0000006  1.          
 BV BOUND     C0000007  1.          
 BV BOUND     C0000008  1.          
 BV BOUND     C0000009  1.          
 BV BOUND     C0000010  1.          
 BV BOUND     C0000011  1.          
 BV BOUND     C0000012  1.          
 BV BOUND     C0000013  1.          
 BV BOUND     C0000014  1.          
 BV BOUND     C0000015  1.          
 BV BOUND     C0000016  1.          
 BV BOUND     C0000017  1.          
 BV BOUND     C0000018  1.          
ENDATA
