data/MCDM/NO_CORR/GEN_FROM_60/19_ITEMS_1000_GEN/K5019W10.KNP.txt
N 19
M 20
LC 19
LC 20
LC 21
LC 22
LC 23
LC 24
LC 25
LC 26
LC 27
LC 28
LC 29
LC 30
LC 31
LC 32
LC 33
LC 34
LC 35
LC 36
LC 37
LR 1
LR 2
LR 3
LR 4
LR 5
LR 6
LR 7
LR 8
LR 9
LR 10
LR 11
LR 12
LR 13
LR 14
LR 15
LR 16
LR 17
LR 18
LR 19
LR 20
LO -198
LO -316
LO -404
LO -914
LO -722
LO -454
LO -876
LO -86
LO -158
LO -1000
LO -884
LO -189
LO -870
LO -734
LO -619
LO -969
LO -194
LO -67
LO -798
OS 1
IC 982
IC 36
IC 742
IC 372
IC 76
IC 678
IC 632
IC 123
IC 553
IC 231
IC 87
IC 463
IC 596
IC 149
IC 293
IC 142
IC 341
IC 430
IC 917
IB 3922
